Route #1: 26
Route #2: 4 45 29 48 30 2 6
Route #3: 17 12 40 32 44 3 16 51
Route #4: 34 46 52 27 13 54 19 14
Route #5: 33 1 43 41 42 22 28 21
Route #6: 7 35 8
Route #7: 39 9 25 50 18 24 49 23
Route #8: 15 20 37 36 47 5
Route #9: 31 10 38 11 53
cost: 654.2140788664591
